#
!B3LYP def2-TZVP RIJCOSX def2/J Freq
%maxcore 4500
%SCF
  MAXITER 1500
END
%pal
  nprocs 40
end
* xyzfile 0 1 mol.xyz
