&GLOBAL
  PROJECT Mo
  PRINT_LEVEL LOW
  RUN_TYPE GEO_OPT
&END GLOBAL
&FORCE_EVAL
  METHOD Quickstep
  &DFT
    BASIS_SET_FILE_NAME BASIS_MOLOPT
    POTENTIAL_FILE_NAME GTH_POTENTIALS
    CHARGE 0
    &MGRID
      CUTOFF 550
      REL_CUTOFF 60
    &END MGRID
    &QS
      METHOD GAPW
    &END QS
    &POISSON
     PERIODIC NONE
     POISSON_SOLVER MT                  # For problematic cases, one can use WAVELET
    &END
    &SCF 
     SCF_GUESS ATOMIC 
     EPS_SCF 1.0E-6 
     MAX_SCF 150
     &OT ON
        CHOLESKY INVERSE	
	MINIMIZER  CG
     &END OT	
     &OUTER_SCF	
       MAX_SCF 50	
       EPS_SCF	1.0E-5
     &END OUTER_SCF	
    &END SCF
! BLYP exchange-correlation
    &XC
      &XC_FUNCTIONAL PBE
      &END XC_FUNCTIONAL
      &XC_GRID
         XC_SMOOTH_RHO  NN10
         XC_DERIV  SPLINE2_SMOOTH
      &END XC_GRID
      &vdW_POTENTIAL
        DISPERSION_FUNCTIONAL PAIR_POTENTIAL	
           &PAIR_POTENTIAL
             TYPE DFTD3
                 PARAMETER_FILE_NAME  dftd3.dat 
      	           REFERENCE_FUNCTIONAL PBE
           &END PAIR_POTENTIAL 
      &END vdW_POTENTIAL
    &END XC 
  &END DFT
  &SUBSYS
    &CELL
      ABC 15.0 15.0 15.0
      PERIODIC NONE
    &END CELL
    &TOPOLOGY
      COORD_FILE_FORMAT XYZ
      COORD_FILE_NAME mo.xyz
      &CENTER_COORDINATES
      &END CENTER_COORDINATES
    &END TOPOLOGY
    &KIND Mo
      BASIS_SET DZVP-MOLOPT-SR-GTH
      POTENTIAL GTH-PBE-q14 
    &END KIND
  &END SUBSYS
&END FORCE_EVAL
&MOTION
  &GEO_OPT
    TYPE MINIMIZATION
    MAX_DR    9.0E-05
    MAX_FORCE 9.0E-05
    RMS_DR    9.0E-05
    RMS_FORCE 9.0E-05
    MAX_ITER 200
    OPTIMIZER CG
  &END GEO_OPT
&END MOTION
